Maximize

27.5 b0 + 22.5 b1 + 33.0 b2 + 6 b3 + 8 b4 + 10 b5 + 38.0 b6 + 6 b7 + 8 b8 + 10 b9 + 41.0 b10 + 18.5 b11 + 496.0 b12 + 82.5 b13 + 305.5 b14.v0 + 305.5 b14.v1 + 131.0 b15 + 37.0 b16.v0 + 35.0 b16.v1 + 6 b17 + 8 b18 + 10 b19 + 53.5 b20 + 55.5 b21 + 8 b22 + 10 b23 + 18.5 b24 + 8 b25 + 10 b26


Subject to

\ === tcfg constraints ===
dSta_0 = 1
b0 - dSta_0 = 0
b0 - d0_1 = 0
b1 - d0_1 = 0
b1 - d1_2 = 0
b2 - d1_2 = 0
b2 - d2_6 - d2_3 = 0
b3 - d2_3 = 0
b3 - d3_4 = 0
b4 - d3_4 = 0
b4 - d4_5 = 0
b5 - d4_5 = 0
b6 - d2_6 = 0
b6 - d6_10 - d6_7 = 0
b7 - d6_7 = 0
b7 - d7_8 = 0
b8 - d7_8 = 0
b8 - d8_9 = 0
b9 - d8_9 = 0
b10 - d6_10 = 0
b10 - d10_20 - d10_11 = 0
b11 - d10_11 = 0
b11 - d11_12 = 0
b12 - d11_12 = 0
b12 - d12_14 - d12_13 = 0
b13 - d12_13 = 0
b13 - d13_14 = 0
b14 - d12_14 - d13_14 = 0
b14 - d14_16 - d14_15 = 0
b15 - d14_15 = 0
b15 - d15_16 = 0
b16 - d14_16 - d15_16 = 0
b16 - d16_17 = 0
b17 - d16_17 = 0
b17 - d17_18 = 0
b18 - d17_18 = 0
b18 - d18_19 = 0
b19 - d18_19 = 0
b20 - d10_20 = 0
b20 - d20_24 - d20_21 = 0
b21 - d20_21 = 0
b21 - d21_22 = 0
b22 - d21_22 = 0
b22 - d22_23 = 0
b23 - d22_23 = 0
b24 - d20_24 = 0
b24 - d24_25 = 0
b25 - d24_25 = 0
b25 - d25_26 = 0
b26 - d25_26 = 0


\ === header constraints ===



\ === context constraints ===
b14 - b14.v0 - b14.v1 = 0
b14.v0 - d12_14 = 0
b14.v1 - d13_14 = 0
b16 - b16.v0 - b16.v1 = 0
b16.v0 - d14_16 = 0
b16.v1 - d15_16 = 0


\ === inst cache constraints ===



\ === data cache constraints ===



Generals


b0
b1
b2
b3
b4
b5
b6
b7
b8
b9
b10
b11
b12
b13
b14
b14.v0
b14.v1
b15
b16
b16.v0
b16.v1
b17
b18
b19
b20
b21
b22
b23
b24
b25
b26
d0_1
d1_2
d2_3
d2_6
d3_4
d4_5
d6_7
d6_10
d7_8
d8_9
d10_11
d10_20
d11_12
d12_13
d12_14
d13_14
d14_15
d14_16
d15_16
d16_17
d17_18
d18_19
d20_21
d20_24
d21_22
d22_23
d24_25
d25_26
dSta_0


End
\ total cons: 62    total vars: 60
